c SAT problem
p wcnf 48 141
1 60 -3120 0
1 -75 -3150 0
1 -75 -60 0
1 90 -3165 0
1 -105 -3105 0
1 -105 3060 0
1 105 90 0
1 -105 -3165 0
1 -3120 -135 0
1 -3120 3121 0
1 3120 -90 0
1 -3120 -60 0
1 3135 -120 0
1 -3135 -60 0
1 3150 -3151 0
1 3150 151 0
1 -3150 121 0
1 -3150 -90 0
1 -3150 -60 0
1 3150 -3165 0
1 -3165 -105 0
1 -120 -3105 0
1 120 -135 0
1 120 3090 0
1 -120 3060 0
1 -135 120 0
1 -150 -3105 0
1 -150 165 0
1 150 3015 0
1 165 -3105 0
1 -165 3045 0
1 -165 3090 0
1 -165 -3060 0
1 -165 3000 0
1 -3060 3075 0
1 -3060 240 0
1 3075 -225 0
1 3075 105 0
1 3075 3060 0
1 -3075 255 0
1 -3090 135 0
1 3090 -255 0
1 -3105 226 0
1 -3105 105 0
1 3105 240 0
1 3105 -150 0
1 180 -3075 0
1 180 -3060 0
1 -195 -3015 0
1 195 -3030 0
1 210 -225 0
1 210 -3015 0
1 210 -3030 0
1 225 3000 0
1 -3000 225 0
1 3015 225 0
1 -3015 -210 0
1 3030 -195 0
1 -3030 -3045 0
1 -3030 210 0
1 -3030 -180 0
1 -3045 -225 0
1 3045 -180 0
1 3045 -150 0
1 -3045 -3030 0
1 -3045 -285 0
1 -121 3255 0
1 136 -3270 0
1 136 -135 0
1 136 -3240 0
1 136 -3165 0
1 151 -166 0
1 -151 3210 0
1 -151 -3180 0
1 -151 -3285 0
1 -166 3255 0
1 -166 -165 0
1 166 -3270 0
1 166 -3225 0
1 -166 3165 0
1 -3240 -3255 0
1 -3240 -211 0
1 -3240 -181 0
1 -3255 -196 0
1 -3255 -166 0
1 -3255 3240 0
1 -3285 136 0
1 -181 -196 0
1 -181 -3180 0
1 -181 -3165 0
1 -181 3135 0
1 196 3105 0
1 196 -195 0
1 -196 3150 0
1 196 -3090 0
1 -196 181 0
1 -211 3136 0
1 211 -3105 0
1 -211 226 0
1 211 3210 0
1 211 -3121 0
1 -211 -3225 0
1 -211 -3166 0
1 -226 -3180 0
1 226 3121 0
1 -226 3090 0
1 226 211 0
1 -3180 -226 0
1 3180 196 0
1 -3195 226 0
1 -3195 181 0
1 3195 285 0
1 -3210 -166 0
1 3210 -211 0
1 -3210 -151 0
1 -3225 196 0
1 3225 -166 0
1 3225 -3210 0
1 -3225 -211 0
1 -240 -3105 0
1 240 -3180 0
1 -255 -3180 0
1 255 3151 0
1 255 -240 0
1 -255 -3121 0
1 255 -3060 0
1 255 -3166 0
1 -270 -3136 0
1 270 -3180 0
1 285 3136 0
1 3121 -270 0
1 3121 -3120 0
1 -3121 -285 0
1 -3136 -226 0
1 3136 -3121 0
1 3136 211 0
1 -3136 3135 0
1 3136 285 0
1 3136 -255 0
1 3151 -226 0
1 -3166 -226 0
